Test: battleship-06-09-unsat.cnf
Options: -no-inverting-opt -activity-nl-freq=1
WARNING: for repeatability, setting FPU to use double precision
============================[ Problem Statistics ]=============================
|                                                                             |
|  Number of symmetries:            7                                         |
|  Number of invertingSyms:         0                                         |
|  Number of variables:            54                                         |
|  Number of clauses:             171                                         |
|  Parse time:                   0.00 s                                       |
|                                                                             |
============================[ Search Statistics ]==============================
| Conflicts |          ORIGINAL         |          LEARNT          | Progress |
|           |    Vars  Clauses Literals |    Limit  Clauses Lit/Cl |          |
===============================================================================
|       100 |      54      171      594 |       62       64     18 |  0.035 % |
|       250 |      54      171      594 |       68       54     16 |  0.035 % |
|       475 |      54      171      594 |       75       83     16 |  0.035 % |
|       812 |      54      171      594 |       83       51     14 |  0.035 % |
|      1318 |      54      171      594 |       91      101     14 |  0.035 % |
|      2077 |      54      171      594 |      100       98     15 |  0.035 % |
|      3216 |      54      171      594 |      111       58     13 |  0.035 % |
|      4924 |      54      171      594 |      122       83     13 |  0.035 % |
===============================================================================
restarts              : 29
conflicts             : 5609           (116847 /sec)
symconflicts          : 331            (6895 /sec)
decisions             : 7537           (0.00 % random) (157011 /sec)
propagations          : 71514          (1489782 /sec)
sympropagations       : 1739           (36227 /sec)
conflict literals     : 99612          (4.13 % deleted)
literals     : 99612          (4.13 % deleted)

HEURISTIC USAGES
random                : 0           
activity w/ lookahead : 0           
activity no lookahead : 7537        
original sp           : 0           
sym count             : 0           

Memory used           : 5.00 MB
CPU time              : 0.048003 s

UNSATISFIABLE
